sing20181130.00
TTAA  80001 48698
99009 26407 33503 00128 25418 30504 92813 21816 36011
85543 17618 35004 70181 08827 07511 50590 04716 07514
40762 14357 08520 30974 29136 07015 25102 39532 09017
20250 52532 09017 15429 67919 10518 10662 85500 08016
88999
77999
31313 41708 82339=
TTCC  80001 48698
70859 74924 09029 50056 68119 09061 30376 53542 25534
20639 51357 25544 10098 42166 27542
88889 88901 12518
77472 10565 43557
31313 41708 82339=
TTDD  8000/ 48698
11889 88901 22860 88373 33846 86527 44803 84974 55675
74311 66224 49557 77196 51558 88189 52158 99095 41567
11082 43169 22060 32576 33054 34978 44054 34578
21212 11488 09564 22472 10565 33384 32013 44306 26035
55269 26025 66261 27035 77252 28038 88244 28036 99236
27543 11056 28504 22054 18509= 

